(set-logic ALL)
(declare-const BAV1 Bool)
(declare-const BAV2 Bool)
(declare-const BAV3 Bool)
(declare-const BAV4 Bool)
(declare-const BAV5 Bool)
(declare-const BAV6 Bool)
(declare-const BAV7 Bool)
(declare-const BAV8 Bool)
(declare-const BAV9 Bool)
(declare-const BAV10 Bool)
(declare-const BAV11 Bool)
(declare-const BAV12 Bool)
(declare-const BAV13 Bool)
(declare-const BAV14 Bool)
(declare-const BAV15 Bool)
(declare-const BAV16 Bool)
(declare-const BAV17 Bool)
(declare-const BAV18 Bool)
(declare-const BAV19 Bool)
(declare-const BAV20 Bool)
(declare-const BAV21 Bool)
(declare-const BAV22 Bool)
(declare-const BAV23 Bool)
(declare-const BAV24 Bool)
(declare-const BAV25 Bool)
(declare-const BAV26 Bool)
(declare-const BAV27 Bool)
(declare-const BAV28 Bool)
(declare-const BAV29 Bool)
(declare-const BAV30 Bool)
(declare-const BAV31 Bool)
(declare-const BAV32 Bool)
(declare-const BAV33 Bool)
(declare-const BAV34 Bool)
(declare-const BAV35 Bool)
(declare-const BAV36 Bool)
(declare-const BAV37 Bool)
(declare-const BAV38 Bool)
(declare-const BAV39 Bool)
(declare-const BAV40 Bool)
(declare-const BAV41 Bool)
(declare-const BAV42 Bool)
(declare-const BAV43 Bool)
(declare-const BAV44 Bool)
(declare-const BAV45 Bool)
(declare-const BAV46 Bool)
(declare-const BAV47 Bool)
(declare-const BAV48 Bool)
(declare-const BAV49 Bool)
(declare-const BAV50 Bool)
(declare-const BAV51 Bool)
(declare-const BAV52 Bool)
(declare-const BAV53 Bool)
(declare-const BAV54 Bool)
(declare-const BAV55 Bool)
(declare-const BAV56 Bool)
(declare-const BAV57 Bool)
(declare-const BAV58 Bool)
(declare-const BAV59 Bool)
(declare-const BAV60 Bool)
(declare-const BAV61 Bool)
(declare-const BAV62 Bool)
(declare-const BAV63 Bool)
(declare-const BAV64 Bool)
(declare-const BAV65 Bool)
(declare-const BAV66 Bool)
(declare-const BAV67 Bool)
(declare-const BAV68 Bool)
(declare-const BAV69 Bool)
(declare-const BAV70 Bool)
(declare-const BAV71 Bool)
(declare-const BAV72 Bool)
(declare-const BAV73 Bool)
(declare-const BAV74 Bool)
(declare-const BAV75 Bool)
(declare-fun x0 () Bool)
(assert (not (not (or x0 x0))))
(assert (= BAV1 (or x0 x0)))
(assert (= BAV2 (and (not (not (not (or (or x0 x0) (not x0))))) (not (not (and (and (or x0 x0) (and x0 x0)) (or (or x0 x0) (not x0))))))))
(assert (= BAV3 (or (or x0 x0) (not x0))))
(assert (= BAV4 (or x0 x0)))
(assert (= BAV5 (and (and (or x0 x0) (and x0 x0)) (or (or x0 x0) (not x0)))))
(assert (= BAV6 (and (or x0 x0) (and x0 x0))))
(assert (= BAV7 (or x0 x0)))
(assert (= BAV8 (and x0 x0)))
(assert (= BAV9 (or (or x0 x0) (not x0))))
(assert (= BAV10 (or x0 x0)))
(assert (= BAV11 (or (not (not (not (and (not (not (or x0 x0))) (not (or (not x0) (not x0))))))) (and (not (or (or (and (and (and x0 x0) (or x0 x0)) (not (not x0))) (or (not (not x0)) (and (not x0) (and x0 x0)))) (or (not (or (not x0) (not x0))) (or (or (and x0 x0) (or x0 x0)) (and (and x0 x0) (and x0 x0)))))) (and (and (or (not (and (not x0) (and x0 x0))) (and (not (not x0)) (not (or x0 x0)))) (not (or (or (or x0 x0) (and x0 x0)) (not (not x0))))) (not (and (or (not (and x0 x0)) (or (or x0 x0) (or x0 x0))) (not (and (and x0 x0) (and x0 x0))))))))))
(assert (= BAV12 (and (not (not (or x0 x0))) (not (or (not x0) (not x0))))))
(assert (= BAV13 (or x0 x0)))
(assert (= BAV14 (or (not x0) (not x0))))
(assert (= BAV15 (and (not (or (or (and (and (and x0 x0) (or x0 x0)) (not (not x0))) (or (not (not x0)) (and (not x0) (and x0 x0)))) (or (not (or (not x0) (not x0))) (or (or (and x0 x0) (or x0 x0)) (and (and x0 x0) (and x0 x0)))))) (and (and (or (not (and (not x0) (and x0 x0))) (and (not (not x0)) (not (or x0 x0)))) (not (or (or (or x0 x0) (and x0 x0)) (not (not x0))))) (not (and (or (not (and x0 x0)) (or (or x0 x0) (or x0 x0))) (not (and (and x0 x0) (and x0 x0)))))))))
(assert (= BAV16 (or (or (and (and (and x0 x0) (or x0 x0)) (not (not x0))) (or (not (not x0)) (and (not x0) (and x0 x0)))) (or (not (or (not x0) (not x0))) (or (or (and x0 x0) (or x0 x0)) (and (and x0 x0) (and x0 x0)))))))
(assert (= BAV17 (or (and (and (and x0 x0) (or x0 x0)) (not (not x0))) (or (not (not x0)) (and (not x0) (and x0 x0))))))
(assert (= BAV18 (and (and (and x0 x0) (or x0 x0)) (not (not x0)))))
(assert (= BAV19 (and (and x0 x0) (or x0 x0))))
(assert (= BAV20 (and x0 x0)))
(assert (= BAV21 (or x0 x0)))
(assert (= BAV22 (or (not (not x0)) (and (not x0) (and x0 x0)))))
(assert (= BAV23 (and (not x0) (and x0 x0))))
(assert (= BAV24 (and x0 x0)))
(assert (= BAV25 (or (not (or (not x0) (not x0))) (or (or (and x0 x0) (or x0 x0)) (and (and x0 x0) (and x0 x0))))))
(assert (= BAV26 (or (not x0) (not x0))))
(assert (= BAV27 (or (or (and x0 x0) (or x0 x0)) (and (and x0 x0) (and x0 x0)))))
(assert (= BAV28 (or (and x0 x0) (or x0 x0))))
(assert (= BAV29 (and x0 x0)))
(assert (= BAV30 (or x0 x0)))
(assert (= BAV31 (and (and x0 x0) (and x0 x0))))
(assert (= BAV32 (and x0 x0)))
(assert (= BAV33 (and x0 x0)))
(assert (= BAV34 (and (and (or (not (and (not x0) (and x0 x0))) (and (not (not x0)) (not (or x0 x0)))) (not (or (or (or x0 x0) (and x0 x0)) (not (not x0))))) (not (and (or (not (and x0 x0)) (or (or x0 x0) (or x0 x0))) (not (and (and x0 x0) (and x0 x0))))))))
(assert (= BAV35 (and (or (not (and (not x0) (and x0 x0))) (and (not (not x0)) (not (or x0 x0)))) (not (or (or (or x0 x0) (and x0 x0)) (not (not x0)))))))
(assert (= BAV36 (or (not (and (not x0) (and x0 x0))) (and (not (not x0)) (not (or x0 x0))))))
(assert (= BAV37 (and (not x0) (and x0 x0))))
(assert (= BAV38 (and x0 x0)))
(assert (= BAV39 (and (not (not x0)) (not (or x0 x0)))))
(assert (= BAV40 (or x0 x0)))
(assert (= BAV41 (or (or (or x0 x0) (and x0 x0)) (not (not x0)))))
(assert (= BAV42 (or (or x0 x0) (and x0 x0))))
(assert (= BAV43 (or x0 x0)))
(assert (= BAV44 (and x0 x0)))
(assert (= BAV45 (and (or (not (and x0 x0)) (or (or x0 x0) (or x0 x0))) (not (and (and x0 x0) (and x0 x0))))))
(assert (= BAV46 (or (not (and x0 x0)) (or (or x0 x0) (or x0 x0)))))
(assert (= BAV47 (and x0 x0)))
(assert (= BAV48 (or (or x0 x0) (or x0 x0))))
(assert (= BAV49 (or x0 x0)))
(assert (= BAV50 (or x0 x0)))
(assert (= BAV51 (and (and x0 x0) (and x0 x0))))
(assert (= BAV52 (and x0 x0)))
(assert (= BAV53 (and x0 x0)))
(assert (= BAV54 (or (or (not (or (or x0 x0) (or x0 x0))) (or (or (and x0 x0) (or x0 x0)) (or (or x0 x0) (and x0 x0)))) (or (or (not (or x0 x0)) (or (or x0 x0) (not x0))) (or (not (and x0 x0)) (and (or x0 x0) (or x0 x0)))))))
(assert (= BAV55 (or (not (or (or x0 x0) (or x0 x0))) (or (or (and x0 x0) (or x0 x0)) (or (or x0 x0) (and x0 x0))))))
(assert (= BAV56 (or (or x0 x0) (or x0 x0))))
(assert (= BAV57 (or x0 x0)))
(assert (= BAV58 (or x0 x0)))
(assert (= BAV59 (or (or (and x0 x0) (or x0 x0)) (or (or x0 x0) (and x0 x0)))))
(assert (= BAV60 (or (and x0 x0) (or x0 x0))))
(assert (= BAV61 (and x0 x0)))
(assert (= BAV62 (or x0 x0)))
(assert (= BAV63 (or (or x0 x0) (and x0 x0))))
(assert (= BAV64 (or x0 x0)))
(assert (= BAV65 (and x0 x0)))
(assert (= BAV66 (or (or (not (or x0 x0)) (or (or x0 x0) (not x0))) (or (not (and x0 x0)) (and (or x0 x0) (or x0 x0))))))
(assert (= BAV67 (or (not (or x0 x0)) (or (or x0 x0) (not x0)))))
(assert (= BAV68 (or x0 x0)))
(assert (= BAV69 (or (or x0 x0) (not x0))))
(assert (= BAV70 (or x0 x0)))
(assert (= BAV71 (or (not (and x0 x0)) (and (or x0 x0) (or x0 x0)))))
(assert (= BAV72 (and x0 x0)))
(assert (= BAV73 (and (or x0 x0) (or x0 x0))))
(assert (= BAV74 (or x0 x0)))
(assert (= BAV75 (or x0 x0)))
(check-sat)
(push 1)
(assert (not (and (not (not (not (or (or x0 x0) (not x0))))) (not (not (and (and (or x0 x0) (and x0 x0)) (or (or x0 x0) (not x0))))))))
(assert (or (not (not (not (and (not (not (or x0 x0))) (not (or (not x0) (not x0))))))) (and (not (or (or (and (and (and x0 x0) (or x0 x0)) (not (not x0))) (or (not (not x0)) (and (not x0) (and x0 x0)))) (or (not (or (not x0) (not x0))) (or (or (and x0 x0) (or x0 x0)) (and (and x0 x0) (and x0 x0)))))) (and (and (or (not (and (not x0) (and x0 x0))) (and (not (not x0)) (not (or x0 x0)))) (not (or (or (or x0 x0) (and x0 x0)) (not (not x0))))) (not (and (or (not (and x0 x0)) (or (or x0 x0) (or x0 x0))) (not (and (and x0 x0) (and x0 x0)))))))))
(assert (or (or (not (or (or x0 x0) (or x0 x0))) (or (or (and x0 x0) (or x0 x0)) (or (or x0 x0) (and x0 x0)))) (or (or (not (or x0 x0)) (or (or x0 x0) (not x0))) (or (not (and x0 x0)) (and (or x0 x0) (or x0 x0))))))
(check-sat)